part2.param

letting BOARD_SIZE = 5